12 40 3 10
14 1 3 17 13 10 19 14 14 12 15 5 7 11 13 20 20 1 8 2 10 6 14 7 20 8 16 19 14 18 4 7 14 14 11 5 17 18 1 16 
6.61 5.88 2.8 4.64 5.71 7.33 2.62 6.99 6.36 7.22 4.07 7.15 3.93 2.38 2.65 4.63 1.07 4.2 2.19 6.72 5.48 2.72 6.78 1.66 5.44 3.51 1.89 5.86 5.4 3.35 1.02 1.21 3.8 3.94 3.15 6.47 0 2.62 5.55 1.96 
5.82 5.18 4.51 3.35 5.42 1.53 2.77 1.47 1.34 6.4 4.05 4.48 7.09 3.12 5.93 0.82 6.72 1.84 2.31 4.89 6.31 1.27 3.93 0.58 0.6 3.77 1.81 2.07 3.55 3.02 6.71 5.9 1.97 2.7 5.85 5.61 6.17 3.92 3.67 4.71 
0.94 0.63 4.92 1.04 1.48 1.14 2.79 3.74 1.96 7.86 0.34 5.89 3.06 1.04 3.31 0.79 3.42 3.29 1.62 4.07 0.8 2 5.05 2.41 1.53 5.41 7.08 2.08 2.9 7.26 7.41 2.82 7.43 5.64 4.44 0.34 5.25 0.3 6.36 6.44 
4 4 4 4 4 4 4 4 4 4 4 4 4 4 4 4 4 4 4 4 4 4 4 4 4 4 4 4 4 4 4 4 4 4 4 4 4 4 4 4 
7.31 4.43 2.89 7.69 4.88 3.2 4.76 7.82 4.15 6.59 6.64 0.91 6.92 3.71 6.56 1.22 0.75 7.98 0.66 6.49 3.43 3.14 7.58 7.24 2.37 1.74 0.3 6.06 7.58 2.92 2.14 6.36 4.69 7.36 4.52 7.15 3.24 3.23 5.61 6.83 
5.05 4.55 4.07 7.65 3.14 6 5.31 2.93 6.81 2.68 1.7 2.77 1.01 4.2 1.06 5.25 3.85 6.45 1.04 4.6 5.28 7.96 2.44 1.76 3.09 1.56 1.04 4.88 7.63 6.39 2.03 1.27 4.82 6.22 4.12 0.25 3.59 2.68 7.35 3.31 
5.4 7.47 7.95 7.92 4.31 3.25 3.45 7.76 2.84 5.9 4.38 5.39 2.17 6.69 0.39 3.63 5.02 1.55 5.58 2.92 5.17 6.38 0.2 3.72 5.33 3.28 0.05 7.08 5.25 3.82 6.59 0.76 0.55 2.57 7.91 7.63 2.9 7.41 7.69 2.22 
2.83 0.58 6.17 0.39 0.14 3.55 5.32 0.75 1.31 1.02 6.06 1.9 4.41 6.31 0.03 2.79 2.99 3.03 5.48 2.22 6.18 2.14 6.56 5.72 2.2 4.07 7.89 4.35 6.49 2.62 4.25 3.78 4.6 5.64 2.53 7.1 7.66 4.44 5.39 2.94 
6.28 6.27 5.98 5.57 2.13 0.71 3.03 1.01 7.18 5.71 6.35 0.2 2.48 4.26 7.8 4.44 0.81 2.96 4.3 5.52 2.51 1.62 4.25 3.71 1.45 0.56 0.83 4.94 5.57 0.39 2.44 0.41 1 2.59 2.62 6.21 3.21 7.5 1.34 3.02 
5.3 3.16 0.69 3.61 0.3 0.32 4.18 0.63 4.05 6.5 5.69 1.7 5.93 7.47 5.61 4.01 6.48 0.14 5.4 5.71 4.07 2.85 2.82 5.21 5.55 3.67 2.64 7.04 0.56 7.63 0.13 7.2 7.83 5.75 7.61 0.57 2.98 2.67 6.97 3.18 
5.41 7.08 1.37 7.66 3.25 6.79 7.9 7.17 7.34 1.22 0.85 0.68 7.52 1.44 3.04 6.86 0.29 0.6 3.33 4.52 7.65 1.35 2.66 2.6 0.02 1.89 2.9 6.59 6.75 5.72 3.7 2.89 0.09 1.93 3.26 6.19 1.64 6 2.95 1.73 
6.9 7.66 5.83 6.69 6.27 7.33 4.76 7 7.59 3.94 4.17 4.46 1.08 3.23 4.76 5.51 1.61 2.53 2.5 5.92 2.91 3.27 5.14 5.04 2 6.93 6.42 0.8 4.82 2.14 7.24 3.69 2.35 2.59 3.76 7.66 4.27 0.59 1.96 0.94 
1 1 1 1 1 1 1 1 1 1 1 1 1 1 1 1 1 1 1 1 1 1 1 1 1 1 1 1 1 1 1 1 1 1 1 1 1 1 1 1 
1 1 1 1 1 1 1 1 1 1 1 1 1 1 1 1 1 1 1 1 1 1 1 1 1 1 1 1 1 1 1 1 1 1 1 1 1 1 1 1 
1 1 1 1 1 1 1 1 1 1 1 1 1 1 1 1 1 1 1 1 1 1 1 1 1 1 1 1 1 1 1 1 1 1 1 1 1 1 1 1 
1 1 1 1 1 1 1 1 1 1 1 1 1 1 1 1 1 1 1 1 1 1 1 1 1 1 1 1 1 1 1 1 1 1 1 1 1 1 1 1 
1 1 1 1 1 1 1 1 1 1 1 1 1 1 1 1 1 1 1 1 1 1 1 1 1 1 1 1 1 1 1 1 1 1 1 1 1 1 1 1 
1 1 1 1 1 1 1 1 1 1 1 1 1 1 1 1 1 1 1 1 1 1 1 1 1 1 1 1 1 1 1 1 1 1 1 1 1 1 1 1 
1 1 1 1 1 1 1 1 1 1 1 1 1 1 1 1 1 1 1 1 1 1 1 1 1 1 1 1 1 1 1 1 1 1 1 1 1 1 1 1 
1 1 1 1 1 1 1 1 1 1 1 1 1 1 1 1 1 1 1 1 1 1 1 1 1 1 1 1 1 1 1 1 1 1 1 1 1 1 1 1 
1 1 1 1 1 1 1 1 1 1 1 1 1 1 1 1 1 1 1 1 1 1 1 1 1 1 1 1 1 1 1 1 1 1 1 1 1 1 1 1 
1 1 1 1 1 1 1 1 1 1 1 1 1 1 1 1 1 1 1 1 1 1 1 1 1 1 1 1 1 1 1 1 1 1 1 1 1 1 1 1 
1 1 1 1 1 1 1 1 1 1 1 1 1 1 1 1 1 1 1 1 1 1 1 1 1 1 1 1 1 1 1 1 1 1 1 1 1 1 1 1 
1 1 1 1 1 1 1 1 1 1 1 1 1 1 1 1 1 1 1 1 1 1 1 1 1 1 1 1 1 1 1 1 1 1 1 1 1 1 1 1 
0.01 0.01 0.01 0.01 0.01 0.01 0.01 0.01 0.01 0.01 0.01 0.01 0.01 0.01 0.01 0.01 0.01 0.01 0.01 0.01 0.01 0.01 0.01 0.01 0.01 0.01 0.01 0.01 0.01 0.01 0.01 0.01 0.01 0.01 0.01 0.01 0.01 0.01 0.01 0.01 
0.02 0.02 0.02 0.02 0.02 0.02 0.02 0.02 0.02 0.02 0.02 0.02 0.02 0.02 0.02 0.02 0.02 0.02 0.02 0.02 0.02 0.02 0.02 0.02 0.02 0.02 0.02 0.02 0.02 0.02 0.02 0.02 0.02 0.02 0.02 0.02 0.02 0.02 0.02 0.02 
0.03 0.03 0.03 0.03 0.03 0.03 0.03 0.03 0.03 0.03 0.03 0.03 0.03 0.03 0.03 0.03 0.03 0.03 0.03 0.03 0.03 0.03 0.03 0.03 0.03 0.03 0.03 0.03 0.03 0.03 0.03 0.03 0.03 0.03 0.03 0.03 0.03 0.03 0.03 0.03 
0.04 0.04 0.04 0.04 0.04 0.04 0.04 0.04 0.04 0.04 0.04 0.04 0.04 0.04 0.04 0.04 0.04 0.04 0.04 0.04 0.04 0.04 0.04 0.04 0.04 0.04 0.04 0.04 0.04 0.04 0.04 0.04 0.04 0.04 0.04 0.04 0.04 0.04 0.04 0.04 
0.125 0.125 0.125 0.125 0.125 0.125 0.125 0.125 0.125 0.125 0.125 0.125 0.125 0.125 0.125 0.125 0.125 0.125 0.125 0.125 0.125 0.125 0.125 0.125 0.125 0.125 0.125 0.125 0.125 0.125 0.125 0.125 0.125 0.125 0.125 0.125 0.125 0.125 0.125 0.125 
0.25 0.25 0.25 0.25 0.25 0.25 0.25 0.25 0.25 0.25 0.25 0.25 0.25 0.25 0.25 0.25 0.25 0.25 0.25 0.25 0.25 0.25 0.25 0.25 0.25 0.25 0.25 0.25 0.25 0.25 0.25 0.25 0.25 0.25 0.25 0.25 0.25 0.25 0.25 0.25 
0.375 0.375 0.375 0.375 0.375 0.375 0.375 0.375 0.375 0.375 0.375 0.375 0.375 0.375 0.375 0.375 0.375 0.375 0.375 0.375 0.375 0.375 0.375 0.375 0.375 0.375 0.375 0.375 0.375 0.375 0.375 0.375 0.375 0.375 0.375 0.375 0.375 0.375 0.375 0.375 
0.5 0.5 0.5 0.5 0.5 0.5 0.5 0.5 0.5 0.5 0.5 0.5 0.5 0.5 0.5 0.5 0.5 0.5 0.5 0.5 0.5 0.5 0.5 0.5 0.5 0.5 0.5 0.5 0.5 0.5 0.5 0.5 0.5 0.5 0.5 0.5 0.5 0.5 0.5 0.5 
0.625 0.625 0.625 0.625 0.625 0.625 0.625 0.625 0.625 0.625 0.625 0.625 0.625 0.625 0.625 0.625 0.625 0.625 0.625 0.625 0.625 0.625 0.625 0.625 0.625 0.625 0.625 0.625 0.625 0.625 0.625 0.625 0.625 0.625 0.625 0.625 0.625 0.625 0.625 0.625 
0.75 0.75 0.75 0.75 0.75 0.75 0.75 0.75 0.75 0.75 0.75 0.75 0.75 0.75 0.75 0.75 0.75 0.75 0.75 0.75 0.75 0.75 0.75 0.75 0.75 0.75 0.75 0.75 0.75 0.75 0.75 0.75 0.75 0.75 0.75 0.75 0.75 0.75 0.75 0.75 
0.875 0.875 0.875 0.875 0.875 0.875 0.875 0.875 0.875 0.875 0.875 0.875 0.875 0.875 0.875 0.875 0.875 0.875 0.875 0.875 0.875 0.875 0.875 0.875 0.875 0.875 0.875 0.875 0.875 0.875 0.875 0.875 0.875 0.875 0.875 0.875 0.875 0.875 0.875 0.875 
1 1 1 1 1 1 1 1 1 1 1 1 1 1 1 1 1 1 1 1 1 1 1 1 1 1 1 1 1 1 1 1 1 1 1 1 1 1 1 1 
